\ Model icep
\ LP format - for model browsing. Use MPS format to capture full model detail.
Minimize
  0 flowLmbda[0,0] + 0 flowLmbda[1,0] + 0 flowBeta[0,0,0,0]
   + 0 flowBeta[0,0,0,1] + 0 flowBeta[0,0,1,0] + 0 flowBeta[0,0,1,1]
   + 0 flowBeta[0,1,0,0] + 0 flowBeta[0,1,0,1] + 0 flowBeta[0,1,1,0]
   + 0 flowBeta[0,1,1,1] + 0 flowBeta[0,2,0,0] + 0 flowBeta[0,2,0,1]
   + 0 flowBeta[0,2,1,0] + 0 flowBeta[0,2,1,1] + 0 flowBeta[1,0,0,0]
   + 0 flowBeta[1,0,0,1] + 0 flowBeta[1,0,1,0] + 0 flowBeta[1,0,1,1]
   + 0 flowBeta[1,1,0,0] + 0 flowBeta[1,1,0,1] + 0 flowBeta[1,1,1,0]
   + 0 flowBeta[1,1,1,1] + 0 flowBeta[1,2,0,0] + 0 flowBeta[1,2,0,1]
   + 0 flowBeta[1,2,1,0] + 0 flowBeta[1,2,1,1] + 0 flowGamma[0,0,0,0]
   + 0 flowGamma[0,0,0,1] + 0 flowGamma[0,0,1,0] + 0 flowGamma[0,0,1,1]
   + 0 flowGamma[0,1,0,0] + 0 flowGamma[0,1,0,1] + 0 flowGamma[0,1,1,0]
   + 0 flowGamma[0,1,1,1] + 0 flowGamma[0,2,0,0] + 0 flowGamma[0,2,0,1]
   + 0 flowGamma[0,2,1,0] + 0 flowGamma[0,2,1,1] + 0 flowGamma[1,0,0,0]
   + 0 flowGamma[1,0,0,1] + 0 flowGamma[1,0,1,0] + 0 flowGamma[1,0,1,1]
   + 0 flowGamma[1,1,0,0] + 0 flowGamma[1,1,0,1] + 0 flowGamma[1,1,1,0]
   + 0 flowGamma[1,1,1,1] + 0 flowGamma[1,2,0,0] + 0 flowGamma[1,2,0,1]
   + 0 flowGamma[1,2,1,0] + 0 flowGamma[1,2,1,1] + 0 flowEpsilon[0,0,0,0]
   + 0 flowEpsilon[0,0,1,0] + 0 flowEpsilon[0,1,0,0]
   + 0 flowEpsilon[0,1,1,0] + 0 flowEpsilon[0,2,0,0]
   + 0 flowEpsilon[0,2,1,0] + 0 flowEpsilon[1,0,0,0]
   + 0 flowEpsilon[1,0,1,0] + 0 flowEpsilon[1,1,0,0]
   + 0 flowEpsilon[1,1,1,0] + 0 flowEpsilon[1,2,0,0]
   + 0 flowEpsilon[1,2,1,0] + 0 psiSelect[0,0,0] + 0 psiSelect[0,0,1]
   + 0 psiSelect[0,1,0] + 0 psiSelect[0,1,1] + 0 psiSelect[1,0,0]
   + 0 psiSelect[1,0,1] + 0 psiSelect[1,1,0] + 0 psiSelect[1,1,1]
   + 0 gammaSelect[0,0,0,0] + 0 gammaSelect[0,0,0,1]
   + 0 gammaSelect[0,0,1,0] + 0 gammaSelect[0,0,1,1]
   + 0 gammaSelect[0,1,0,0] + 0 gammaSelect[0,1,0,1]
   + 0 gammaSelect[0,1,1,0] + 0 gammaSelect[0,1,1,1]
   + 0 gammaSelect[0,2,0,0] + 0 gammaSelect[0,2,0,1]
   + 0 gammaSelect[0,2,1,0] + 0 gammaSelect[0,2,1,1]
   + 0 gammaSelect[1,0,0,0] + 0 gammaSelect[1,0,0,1]
   + 0 gammaSelect[1,0,1,0] + 0 gammaSelect[1,0,1,1]
   + 0 gammaSelect[1,1,0,0] + 0 gammaSelect[1,1,0,1]
   + 0 gammaSelect[1,1,1,0] + 0 gammaSelect[1,1,1,1]
   + 0 gammaSelect[1,2,0,0] + 0 gammaSelect[1,2,0,1]
   + 0 gammaSelect[1,2,1,0] + 0 gammaSelect[1,2,1,1]
   + 0 deltaSelect[0,0,0,0] + 0 deltaSelect[0,0,0,1]
   + 0 deltaSelect[0,0,1,0] + 0 deltaSelect[0,0,1,1]
   + 0 deltaSelect[0,1,0,0] + 0 deltaSelect[0,1,0,1]
   + 0 deltaSelect[0,1,1,0] + 0 deltaSelect[0,1,1,1]
   + 0 deltaSelect[0,2,0,0] + 0 deltaSelect[0,2,0,1]
   + 0 deltaSelect[0,2,1,0] + 0 deltaSelect[0,2,1,1]
   + 0 deltaSelect[1,0,0,0] + 0 deltaSelect[1,0,0,1]
   + 0 deltaSelect[1,0,1,0] + 0 deltaSelect[1,0,1,1]
   + 0 deltaSelect[1,1,0,0] + 0 deltaSelect[1,1,0,1]
   + 0 deltaSelect[1,1,1,0] + 0 deltaSelect[1,1,1,1]
   + 0 deltaSelect[1,2,0,0] + 0 deltaSelect[1,2,0,1]
   + 0 deltaSelect[1,2,1,0] + 0 deltaSelect[1,2,1,1] + totalTime
Subject To
 Eq-2[0]: timeForResourceI[0] - totalTime <= 0
 Eq-2[1]: timeForResourceI[1] - totalTime <= 0
Bounds
Binaries
 psiSelect[0,0,0] psiSelect[0,0,1] psiSelect[0,1,0] psiSelect[0,1,1]
 psiSelect[1,0,0] psiSelect[1,0,1] psiSelect[1,1,0] psiSelect[1,1,1]
 gammaSelect[0,0,0,0] gammaSelect[0,0,0,1] gammaSelect[0,0,1,0]
 gammaSelect[0,0,1,1] gammaSelect[0,1,0,0] gammaSelect[0,1,0,1]
 gammaSelect[0,1,1,0] gammaSelect[0,1,1,1] gammaSelect[0,2,0,0]
 gammaSelect[0,2,0,1] gammaSelect[0,2,1,0] gammaSelect[0,2,1,1]
 gammaSelect[1,0,0,0] gammaSelect[1,0,0,1] gammaSelect[1,0,1,0]
 gammaSelect[1,0,1,1] gammaSelect[1,1,0,0] gammaSelect[1,1,0,1]
 gammaSelect[1,1,1,0] gammaSelect[1,1,1,1] gammaSelect[1,2,0,0]
 gammaSelect[1,2,0,1] gammaSelect[1,2,1,0] gammaSelect[1,2,1,1]
 deltaSelect[0,0,0,0] deltaSelect[0,0,0,1] deltaSelect[0,0,1,0]
 deltaSelect[0,0,1,1] deltaSelect[0,1,0,0] deltaSelect[0,1,0,1]
 deltaSelect[0,1,1,0] deltaSelect[0,1,1,1] deltaSelect[0,2,0,0]
 deltaSelect[0,2,0,1] deltaSelect[0,2,1,0] deltaSelect[0,2,1,1]
 deltaSelect[1,0,0,0] deltaSelect[1,0,0,1] deltaSelect[1,0,1,0]
 deltaSelect[1,0,1,1] deltaSelect[1,1,0,0] deltaSelect[1,1,0,1]
 deltaSelect[1,1,1,0] deltaSelect[1,1,1,1] deltaSelect[1,2,0,0]
 deltaSelect[1,2,0,1] deltaSelect[1,2,1,0] deltaSelect[1,2,1,1]
Generals
 flowLmbda[0,0] flowLmbda[1,0] flowBeta[0,0,0,0] flowBeta[0,0,0,1]
 flowBeta[0,0,1,0] flowBeta[0,0,1,1] flowBeta[0,1,0,0] flowBeta[0,1,0,1]
 flowBeta[0,1,1,0] flowBeta[0,1,1,1] flowBeta[0,2,0,0] flowBeta[0,2,0,1]
 flowBeta[0,2,1,0] flowBeta[0,2,1,1] flowBeta[1,0,0,0] flowBeta[1,0,0,1]
 flowBeta[1,0,1,0] flowBeta[1,0,1,1] flowBeta[1,1,0,0] flowBeta[1,1,0,1]
 flowBeta[1,1,1,0] flowBeta[1,1,1,1] flowBeta[1,2,0,0] flowBeta[1,2,0,1]
 flowBeta[1,2,1,0] flowBeta[1,2,1,1] flowGamma[0,0,0,0] flowGamma[0,0,0,1]
 flowGamma[0,0,1,0] flowGamma[0,0,1,1] flowGamma[0,1,0,0]
 flowGamma[0,1,0,1] flowGamma[0,1,1,0] flowGamma[0,1,1,1]
 flowGamma[0,2,0,0] flowGamma[0,2,0,1] flowGamma[0,2,1,0]
 flowGamma[0,2,1,1] flowGamma[1,0,0,0] flowGamma[1,0,0,1]
 flowGamma[1,0,1,0] flowGamma[1,0,1,1] flowGamma[1,1,0,0]
 flowGamma[1,1,0,1] flowGamma[1,1,1,0] flowGamma[1,1,1,1]
 flowGamma[1,2,0,0] flowGamma[1,2,0,1] flowGamma[1,2,1,0]
 flowGamma[1,2,1,1] flowEpsilon[0,0,0,0] flowEpsilon[0,0,1,0]
 flowEpsilon[0,1,0,0] flowEpsilon[0,1,1,0] flowEpsilon[0,2,0,0]
 flowEpsilon[0,2,1,0] flowEpsilon[1,0,0,0] flowEpsilon[1,0,1,0]
 flowEpsilon[1,1,0,0] flowEpsilon[1,1,1,0] flowEpsilon[1,2,0,0]
 flowEpsilon[1,2,1,0] timeForResourceI[0] timeForResourceI[1] totalTime
End
